NAME: test1698
TYPE: TSP
DIMENSION: 11
EDGE_WEIGHT_TYPE: EUC_2D
NODE_COORD_SECTION
1 43.289665466325346 36.43430124134008
2 22.766658048104627 34.11015162090904
3 73.18010328981866 33.08774335115254
4 33.797746765308645 28.92979214055764
5 55.05272696209988 50.72355828361994
6 97.62390870675668 34.72580431848327
7 96.62974228708143 41.64571256046579
8 79.48907157059874 77.92129485686172
9 49.336490324876934 49.30429617229716
10 1.2176409662218002 58.412417254425556
11 43.870865049622296 65.36581683606886
EOF
